8
2147483647 48 46 95 58 3 95 31 
48 2147483647 69 73 99 40 58 64 
46 69 2147483647 13 14 65 92 46 
95 73 13 2147483647 85 26 55 21 
58 99 14 85 2147483647 35 72 94 
3 40 65 26 35 2147483647 55 74 
95 58 92 55 72 55 2147483647 61 
31 64 46 21 94 74 61 2147483647 
